data;

set A := 102003 42092 863831 438347 81397 77244 444053 383390 324412 485639 632626 431325 637023 623172 598607 175281 7125 36957 78923 160470 293111 92527 672329 585240 378944 565000 306605 296598 474576 422568 858974 929794 204260 124224 867333 519839 836511 404149 66380 130049 844037 288285 503328 472976 809978 339072 424431 398788 812486 590360 712682 801577 967635 136401 661892 204317 755181 347849 538672 455501 445760 352016 445030 366011 624478 89577 835870 366906;
param T := 17000000;

end;
